NAME: instance_1654
TYPE: TSP
DIMENSION: 20
EDGE_WEIGHT_TYPE: EUC_2D
NODE_COORD_SECTION
0 97.20 63.72
1 47.89 99.03
2 35.89 75.43
3 71.54 14.70
4 39.72 91.46
5 81.56 18.78
6 68.27 85.63
7 31.53 72.58
8 47.02 97.68
9 42.31 30.30
10 64.39 44.84
11 95.90 40.57
12 94.46 34.21
13 46.41 27.15
14 70.23 59.21
15 30.34 24.57
16 38.48 98.38
17 77.72 88.40
18 6.99 30.21
19 30.37 52.84
EOF
